36
73
28
45
48
40
77
11
65
95
59
0
53
23
88
56
5
12
35
52
18
89
1
3
99
63
30
20
86
84
91
55
16
66
22
50
54
43
19
61
2
24
37
38
31
4
47
7
75
29
49
80
58
69
64
92
25
71
41
93
70
44
51
6
79
42
13
34
46
76
97
82
26
27
62
96
67
87
8
85
32
90
78
9
33
60
72
17
98
57
74
21
15
10
68
39
83
81
94
14
